Route #1: 7 26 30 16 4 46
Route #2: 11 42 53 57 14 33 17 61 25 62
Route #3: 34 49 43 10 20 24 28
Route #4: 39 19 23 13 44 29 27
Route #5: 12 58 18 2 22 36 15
Route #6: 50 56 32 60 51 41 37 45 40 8 31
Route #7: 54 63 52 35
Route #8: 21 38 5 6 55 47
Route #9: 64 3 59 48 9
cost 1687
